rsa_demo_benchmark_output/64/certs/0012.assert.smt2
; benchmark generated from python API
(set-info :status unknown)
(declare-fun p () Int)
(declare-fun q () Int)
(declare-fun n () Int)
(assert
 (= p 2894679833))
(assert
 (= q 3698700739))
(assert
 (= n 10706554437485496587))
(assert
 (let ((?x31 (* p q)))
 (= ?x31 n)))
(assert
 (> p 1))
(assert
 (> q 1))
(check-sat)
